NAME          
ROWS
 N  OBJ
 G  R0
 G  R1
 G  R2
 G  R3
 G  R4
 G  R5
 G  R6
 G  R7
 G  R8
 G  R9
 G  R10
 G  R11
 G  R12
 G  R13
 G  R14
 G  R15
 G  R16
 G  R17
 G  R18
 G  R19
 G  R20
 G  R21
 G  R22
 G  R23
 G  R24
 G  R25
 G  R26
COLUMNS
    C0 R0 1
    C0 R1 1.0600000000000001
    C0 R2 -1
    C0 R23 -0.30099999999999999
    C1 OBJ -0.40000000000000002
    C1 R0 -1
    C1 R3 1
    C2 R0 -1
    C2 R21 1
    C3 R1 -1
    C3 R25 -1
    C4 R4 1
    C4 R5 1.0600000000000001
    C4 R6 -1
    C4 R24 -0.30099999999999999
    C5 R4 1
    C5 R5 1.0600000000000001
    C5 R7 -1
    C5 R24 -0.313
    C6 R4 1
    C6 R5 0.95999999999999996
    C6 R8 -1
    C6 R24 -0.313
    C7 R4 1
    C7 R5 0.85999999999999999
    C7 R9 -1
    C7 R24 -0.32600000000000001
    C8 R6 1
    C8 R20 -2.3639999999999999
    C9 R7 1
    C9 R20 -2.3860000000000001
    C10 R8 1
    C10 R20 -2.4079999999999999
    C11 R9 1
    C11 R20 -2.4289999999999998
    C12 OBJ -0.32000000000000001
    C12 R3 -1.3999999999999999
    C12 R4 -1
    C13 R4 -1
    C13 R22 1
    C14 R5 -1
    C14 R26 -1
    C15 R10 1
    C15 R11 0.42999999999999999
    C15 R12 -1
    C15 R21 -0.109
    C16 OBJ -0.59999999999999998
    C16 R10 -1
    C16 R13 1
    C17 R10 -1
    C17 R23 1
    C18 R10 -1
    C18 R20 1
    C19 R11 -1
    C19 R25 -1
    C20 R14 0.42999999999999999
    C20 R15 -1
    C20 R16 -1
    C20 R22 -0.109
    C21 R14 0.42999999999999999
    C21 R15 -1
    C21 R17 -1
    C21 R22 -0.108
    C22 R14 0.39000000000000001
    C22 R15 -1
    C22 R18 -1
    C22 R22 -0.108
    C23 R14 0.37
    C23 R15 -1
    C23 R19 -1
    C23 R22 -0.107
    C24 R16 1
    C24 R20 -2.1909999999999998
    C25 R17 1
    C25 R20 -2.2189999999999999
    C26 R18 1
    C26 R20 -2.2490000000000001
    C27 R19 1
    C27 R20 -2.2789999999999999
    C28 OBJ -0.47999999999999998
    C28 R13 -1.3999999999999999
    C28 R15 1
    C29 R15 -1
    C29 R24 1
    C30 R14 -1
    C30 R26 -1
    C31 OBJ 10
    C31 R15 -1
RHS
    RHS1      R2 -80
    RHS1      R6 -80
    RHS1      R12 -500
    RHS1      R15 -44
    RHS1      R16 -500
    RHS1      R25 -310
    RHS1      R26 -300
BOUNDS
 LO BOUND1    C0 0
 LO BOUND1    C2 0
 LO BOUND1    C3 0
 LO BOUND1    C4 0
 LO BOUND1    C5 0
 LO BOUND1    C6 0
 LO BOUND1    C7 0
 LO BOUND1    C8 0
 LO BOUND1    C9 0
 LO BOUND1    C10 0
 LO BOUND1    C11 0
 LO BOUND1    C13 0
 LO BOUND1    C14 0
 LO BOUND1    C15 0
 LO BOUND1    C17 0
 LO BOUND1    C18 0
 LO BOUND1    C19 0
 LO BOUND1    C20 0
 LO BOUND1    C21 0
 LO BOUND1    C22 0
 LO BOUND1    C23 0
 LO BOUND1    C24 0
 LO BOUND1    C25 0
 LO BOUND1    C26 0
 LO BOUND1    C27 0
 LO BOUND1    C29 0
 LO BOUND1    C30 0
ENDATA
